11929
11929
12628
12718
12792
12792
12938
13765
13765
13765
13765
13825
14118
14355
14355
14355
14423
14423
14428
14544
14786
14786
14786
14786
14786
14839
14839
14839
14839
14839
14839
14839
14839
14839
14839
14839
14839
14839
14839
14839
14839
14839
14839
14839
14839
14839
14839
14839
14839
14839
14839
14839
14839
14839
14839
14839
14839
14839
14839
14839
14839
14839
14839
14839
14839
14839
14839
14839
14839
14839
14839
14839
14839
14839
14839
14839
14839
14839
14839
14839
14839
14839
14839
14839
14839
14839
14839
14839
14839
14839
14839
14839
14839
14839
14839
14839
14839
14839
14839
